
;this file is automatically generated: Mon Aug 22 12:11:10 IST 2016

;declarations generated

(declare-fun type_5d3c54fb_1fe2_4ee7_85e9_7140ff0bb550_A ( Int) Bool )
(declare-fun oclExcludes ( Int Int) Bool )
(declare-fun oclSelect ( Int Bool) Int )
(declare-fun type_86035b4d_db33_4c4e_a63c_1baee9302737_D ( Int) Bool )
(declare-fun Cardinality ( Int) Int )
(declare-fun type_2dafedc3_eb8c_4e56_9a8e_51d7b5189700_B ( Int) Bool )
(declare-fun obj_f0b91b33_d882_4439_88b4_482e26948b83 ( Int) Int )
(declare-fun type_e47b033a_80c2_4465_a6a2_4e4e8cbc82ac_C ( Int) Bool )
(declare-fun container_ ( Int) Int )
(declare-fun oclIncludes ( Int Int) Bool )
(declare-fun aux1 () Int )
(declare-fun aux0 () Int )
(declare-fun aux3 () Int )
(declare-fun aux2 () Int )
(declare-fun aux4 () Int )
(declare-fun weight4 () Int )
(declare-fun weight3 () Int )
(declare-fun ObjAt ( Int Int) Int )
(declare-fun weight2 () Int )
(declare-fun weight1 () Int )
(declare-fun weight0 () Int )

;formula(s) generated
(assert (and (>= aux0 0) (<= aux0 1)))
(assert (or (or (forall ((b Int)) (=> (and ( type_2dafedc3_eb8c_4e56_9a8e_51d7b5189700_B b )  ( type_5d3c54fb_1fe2_4ee7_85e9_7140ff0bb550_A b ) ) (forall ((c Int)) (=> (and ( type_e47b033a_80c2_4465_a6a2_4e4e8cbc82ac_C c )  ( type_5d3c54fb_1fe2_4ee7_85e9_7140ff0bb550_A c ) ) (not (= ( obj_f0b91b33_d882_4439_88b4_482e26948b83 b )  ( obj_f0b91b33_d882_4439_88b4_482e26948b83 c ) ) ))))) (and (= aux0 1) true)) (and (= aux0 0) false)))
(assert (and (=> (= aux0 0) (= weight0 1)) (=> (= aux0 1) (= weight0 0))))
(assert (and (>= aux1 0) (<= aux1 1)))
(assert (and (>= aux2 0) (<= aux2 1)))
(assert (and (>= aux3 0) (<= aux3 1)))
(assert (and (>= aux4 0) (<= aux4 1)))
(assert (or (or (exists ((p Int)) ( type_5d3c54fb_1fe2_4ee7_85e9_7140ff0bb550_A ( obj_f0b91b33_d882_4439_88b4_482e26948b83 p )  ) ) (and (= aux1 1) true)) (and (= aux1 0) false)))
(assert (and (=> (= aux1 0) (= weight1 1)) (=> (= aux1 1) (= weight1 0))))
(assert (or (or (exists ((p Int)) (and ( type_2dafedc3_eb8c_4e56_9a8e_51d7b5189700_B ( obj_f0b91b33_d882_4439_88b4_482e26948b83 p )  )  ( type_5d3c54fb_1fe2_4ee7_85e9_7140ff0bb550_A ( obj_f0b91b33_d882_4439_88b4_482e26948b83 p )  ) )) (and (= aux2 1) true)) (and (= aux2 0) false)))
(assert (and (=> (= aux2 0) (= weight2 1)) (=> (= aux2 1) (= weight2 0))))
(assert (or (or (exists ((p Int)) (and ( type_e47b033a_80c2_4465_a6a2_4e4e8cbc82ac_C ( obj_f0b91b33_d882_4439_88b4_482e26948b83 p )  )  ( type_5d3c54fb_1fe2_4ee7_85e9_7140ff0bb550_A ( obj_f0b91b33_d882_4439_88b4_482e26948b83 p )  ) )) (and (= aux3 1) true)) (and (= aux3 0) false)))
(assert (and (=> (= aux3 0) (= weight3 1)) (=> (= aux3 1) (= weight3 0))))
(assert (or (or (exists ((p Int)) (and (and (and ( type_86035b4d_db33_4c4e_a63c_1baee9302737_D ( obj_f0b91b33_d882_4439_88b4_482e26948b83 p )  )  ( type_5d3c54fb_1fe2_4ee7_85e9_7140ff0bb550_A ( obj_f0b91b33_d882_4439_88b4_482e26948b83 p )  ) ) ( type_2dafedc3_eb8c_4e56_9a8e_51d7b5189700_B ( obj_f0b91b33_d882_4439_88b4_482e26948b83 p )  ) ) ( type_e47b033a_80c2_4465_a6a2_4e4e8cbc82ac_C ( obj_f0b91b33_d882_4439_88b4_482e26948b83 p )  ) )) (and (= aux4 1) true)) (and (= aux4 0) false)))
(assert (and (=> (= aux4 0) (= weight4 1)) (=> (= aux4 1) (= weight4 0))))
(assert (= (+ (+ (+ (+ weight0 weight1) weight2) weight3) weight4) 4))
(assert (not (and (and (and (and (= weight0 1) (= weight1 1)) (= weight2 1)) (= weight3 1)) (= weight4 0)) ))
(assert (not (and (and (and (and (= weight0 0) (= weight1 1)) (= weight2 1)) (= weight3 1)) (= weight4 1)) ))
